results/res_prop_muc/res_Cimatti_mathsat_cores/QF_UF/PEQ012_size4.smt.smt2.out

real	0m2.649s
user	0m2.481s
sys	0m0.069s
